p cnf 280 1048
12 -40 2 0
7 35 -44 0
27 40 -29 0
-19 29 45 0
32 24 4 0
6 29 39 0
-40 42 -45 0
49 -9 41 0
23 -21 -25 0
-2 -16 23 0
-28 -35 -42 0
-39 48 -33 0
-30 46 7 0
40 3 29 0
-48 45 50 0
-47 -29 -16 0
-44 14 -49 0
-31 -3 16 0
-23 -34 -20 0
-24 11 46 0
9 32 8 0
30 -41 -39 0
33 14 24 0
-28 -4 -9 0
-2 31 -15 0
-31 33 4 0
-25 8 -11 0
-29 -13 -33 0
12 -28 -24 0
-46 45 -30 0
-3 49 7 0
-42 3 15 0
35 47 26 0
47 45 38 0
-4 -28 -45 0
-3 -27 14 0
-16 -46 6 0
19 5 -30 0
5 30 24 0
-16 -47 -20 0
25 -33 32 0
-5 -47 -48 0
-9 -43 -2 0
-31 -3 29 0
-48 -38 34 0
-50 27 -22 0
30 19 1 0
25 -26 18 0
21 13 -30 0
38 -47 22 0
49 7 15 0
43 -29 -38 0
12 -22 46 0
-26 5 22 0
14 -45 43 0
29 -17 -37 0
-8 20 7 0
-35 -29 -31 0
-44 -22 -16 0
-34 9 -43 0
-3 -41 -15 0
-46 2 -35 0
-24 -37 -36 0
-35 12 -10 0
-44 36 39 0
40 -14 17 0
20 -13 -48 0
35 25 -4 0
-39 17 -40 0
-18 -16 38 0
34 -20 17 0
-3 47 -14 0
9 -21 -48 0
21 -11 27 0
-31 -27 -43 0
-2 25 31 0
10 45 8 0
26 -48 23 0
-18 -30 -31 0
-46 -17 -34 0
13 -35 -28 0
-41 27 43 0
-18 23 -10 0
43 27 -11 0
-33 41 -42 0
25 -26 -1 0
-32 -48 -44 0
-3 28 46 0
18 -15 -30 0
-11 10 -49 0
1 -37 -3 0
10 33 -43 0
-15 -18 37 0
17 13 -44 0
16 2 46 0
-7 32 29 0
48 35 49 0
-25 -44 20 0
39 -34 -44 0
-50 17 -47 0
-1 -4 51 0
1 -4 -51 0
-1 4 -51 0
1 4 51 0
-7 -10 52 0
7 -10 -52 0
-7 10 -52 0
7 10 52 0
13 14 53 0
-13 14 -53 0
13 -14 -53 0
-13 -14 53 0
15 -16 54 0
-15 -16 -54 0
15 16 -54 0
-15 16 54 0
18 19 55 0
-18 19 -55 0
18 -19 -55 0
-18 -19 55 0
-20 -21 56 0
20 -21 -56 0
-20 21 -56 0
20 21 56 0
22 -27 57 0
-22 -27 -57 0
22 27 -57 0
-22 27 57 0
-28 -29 58 0
28 -29 -58 0
-28 29 -58 0
28 29 58 0
30 -31 59 0
-30 -31 -59 0
30 31 -59 0
-30 31 59 0
-33 -37 60 0
33 -37 -60 0
-33 37 -60 0
33 37 60 0
-38 42 61 0
38 42 -61 0
-38 -42 -61 0
38 -42 61 0
-43 -45 62 0
43 -45 -62 0
-43 45 -62 0
43 45 62 0
46 48 63 0
-46 48 -63 0
46 -48 -63 0
-46 -48 63 0
50 -51 64 0
-50 -51 -64 0
50 51 -64 0
-50 51 64 0
52 -53 65 0
-52 -53 -65 0
52 53 -65 0
-52 53 65 0
54 -55 66 0
-54 -55 -66 0
54 55 -66 0
-54 55 66 0
56 -57 67 0
-56 -57 -67 0
56 57 -67 0
-56 57 67 0
58 -59 68 0
-58 -59 -68 0
58 59 -68 0
-58 59 68 0
60 -61 69 0
-60 -61 -69 0
60 61 -69 0
-60 61 69 0
62 -63 70 0
-62 -63 -70 0
62 63 -70 0
-62 63 70 0
64 -65 71 0
-64 -65 -71 0
64 65 -71 0
-64 65 71 0
66 -67 72 0
-66 -67 -72 0
66 67 -72 0
-66 67 72 0
68 -69 73 0
-68 -69 -73 0
68 69 -73 0
-68 69 73 0
70 -71 74 0
-70 -71 -74 0
70 71 -74 0
-70 71 74 0
72 -73 75 0
-72 -73 -75 0
72 73 -75 0
-72 73 75 0
74 75 0
-74 -75 0
-1 2 76 0
1 2 -76 0
-1 -2 -76 0
1 -2 76 0
-4 6 77 0
4 6 -77 0
-4 -6 -77 0
4 -6 77 0
-8 -9 78 0
8 -9 -78 0
-8 9 -78 0
8 9 78 0
10 11 79 0
-10 11 -79 0
10 -11 -79 0
-10 -11 79 0
13 -14 80 0
-13 -14 -80 0
13 14 -80 0
-13 14 80 0
17 18 81 0
-17 18 -81 0
17 -18 -81 0
-17 -18 81 0
20 23 82 0
-20 23 -82 0
20 -23 -82 0
-20 -23 82 0
25 27 83 0
-25 27 -83 0
25 -27 -83 0
-25 -27 83 0
28 -30 84 0
-28 -30 -84 0
28 30 -84 0
-28 30 84 0
-31 -33 85 0
31 -33 -85 0
-31 33 -85 0
31 33 85 0
-34 35 86 0
34 35 -86 0
-34 -35 -86 0
34 -35 86 0
-36 37 87 0
36 37 -87 0
-36 -37 -87 0
36 -37 87 0
-40 42 88 0
40 42 -88 0
-40 -42 -88 0
40 -42 88 0
43 -46 89 0
-43 -46 -89 0
43 46 -89 0
-43 46 89 0
-49 -50 90 0
49 -50 -90 0
-49 50 -90 0
49 50 90 0
76 -77 91 0
-76 -77 -91 0
76 77 -91 0
-76 77 91 0
78 -79 92 0
-78 -79 -92 0
78 79 -92 0
-78 79 92 0
80 -81 93 0
-80 -81 -93 0
80 81 -93 0
-80 81 93 0
82 -83 94 0
-82 -83 -94 0
82 83 -94 0
-82 83 94 0
84 -85 95 0
-84 -85 -95 0
84 85 -95 0
-84 85 95 0
86 -87 96 0
-86 -87 -96 0
86 87 -96 0
-86 87 96 0
88 -89 97 0
-88 -89 -97 0
88 89 -97 0
-88 89 97 0
90 -91 98 0
-90 -91 -98 0
90 91 -98 0
-90 91 98 0
92 -93 99 0
-92 -93 -99 0
92 93 -99 0
-92 93 99 0
94 -95 100 0
-94 -95 -100 0
94 95 -100 0
-94 95 100 0
96 -97 101 0
-96 -97 -101 0
96 97 -101 0
-96 97 101 0
98 -99 102 0
-98 -99 -102 0
98 99 -102 0
-98 99 102 0
100 -101 103 0
-100 -101 -103 0
100 101 -103 0
-100 101 103 0
102 103 0
-102 -103 0
-3 6 104 0
3 6 -104 0
-3 -6 -104 0
3 -6 104 0
9 10 105 0
-9 10 -105 0
9 -10 -105 0
-9 -10 105 0
12 13 106 0
-12 13 -106 0
12 -13 -106 0
-12 -13 106 0
-15 -19 107 0
15 -19 -107 0
-15 19 -107 0
15 19 107 0
22 28 108 0
-22 28 -108 0
22 -28 -108 0
-22 -28 108 0
-29 33 109 0
29 33 -109 0
-29 -33 -109 0
29 -33 109 0
35 38 110 0
-35 38 -110 0
35 -38 -110 0
-35 -38 110 0
-40 46 111 0
40 46 -111 0
-40 -46 -111 0
40 -46 111 0
48 -50 112 0
-48 -50 -112 0
48 50 -112 0
-48 50 112 0
104 -105 113 0
-104 -105 -113 0
104 105 -113 0
-104 105 113 0
106 -107 114 0
-106 -107 -114 0
106 107 -114 0
-106 107 114 0
108 -109 115 0
-108 -109 -115 0
108 109 -115 0
-108 109 115 0
110 -111 116 0
-110 -111 -116 0
110 111 -116 0
-110 111 116 0
112 -113 117 0
-112 -113 -117 0
112 113 -117 0
-112 113 117 0
114 -115 118 0
-114 -115 -118 0
114 115 -118 0
-114 115 118 0
-116 -117 118 0
116 -117 -118 0
-116 117 -118 0
116 117 118 0
1 2 119 0
-1 2 -119 0
1 -2 -119 0
-1 -2 119 0
-5 -7 120 0
5 -7 -120 0
-5 7 -120 0
5 7 120 0
-8 10 121 0
8 10 -121 0
-8 -10 -121 0
8 -10 121 0
12 -13 122 0
-12 -13 -122 0
12 13 -122 0
-12 13 122 0
16 -18 123 0
-16 -18 -123 0
16 18 -123 0
-16 18 123 0
-20 22 124 0
20 22 -124 0
-20 -22 -124 0
20 -22 124 0
-23 25 125 0
23 25 -125 0
-23 -25 -125 0
23 -25 125 0
26 31 126 0
-26 31 -126 0
26 -31 -126 0
-26 -31 126 0
33 -34 127 0
-33 -34 -127 0
33 34 -127 0
-33 34 127 0
-35 36 128 0
35 36 -128 0
-35 -36 -128 0
35 -36 128 0
-37 -39 129 0
37 -39 -129 0
-37 39 -129 0
37 39 129 0
-40 -48 130 0
40 -48 -130 0
-40 48 -130 0
40 48 130 0
118 -119 131 0
-118 -119 -131 0
118 119 -131 0
-118 119 131 0
120 -121 132 0
-120 -121 -132 0
120 121 -132 0
-120 121 132 0
122 -123 133 0
-122 -123 -133 0
122 123 -133 0
-122 123 133 0
124 -125 134 0
-124 -125 -134 0
124 125 -134 0
-124 125 134 0
126 -127 135 0
-126 -127 -135 0
126 127 -135 0
-126 127 135 0
128 -129 136 0
-128 -129 -136 0
128 129 -136 0
-128 129 136 0
130 -131 137 0
-130 -131 -137 0
130 131 -137 0
-130 131 137 0
132 -133 138 0
-132 -133 -138 0
132 133 -138 0
-132 133 138 0
134 -135 139 0
-134 -135 -139 0
134 135 -139 0
-134 135 139 0
136 -137 140 0
-136 -137 -140 0
136 137 -140 0
-136 137 140 0
138 -139 141 0
-138 -139 -141 0
138 139 -141 0
-138 139 141 0
140 141 0
-140 -141 0
2 -3 142 0
-2 -3 -142 0
2 3 -142 0
-2 3 142 0
5 -6 143 0
-5 -6 -143 0
5 6 -143 0
-5 6 143 0
7 8 144 0
-7 8 -144 0
7 -8 -144 0
-7 -8 144 0
-9 -10 145 0
9 -10 -145 0
-9 10 -145 0
9 10 145 0
-11 -12 146 0
11 -12 -146 0
-11 12 -146 0
11 12 146 0
16 -17 147 0
-16 -17 -147 0
16 17 -147 0
-16 17 147 0
-18 -22 148 0
18 -22 -148 0
-18 22 -148 0
18 22 148 0
24 -27 149 0
-24 -27 -149 0
24 27 -149 0
-24 27 149 0
28 -34 150 0
-28 -34 -150 0
28 34 -150 0
-28 34 150 0
-35 37 151 0
35 37 -151 0
-35 -37 -151 0
35 -37 151 0
38 -39 152 0
-38 -39 -152 0
38 39 -152 0
-38 39 152 0
41 42 153 0
-41 42 -153 0
41 -42 -153 0
-41 -42 153 0
43 44 154 0
-43 44 -154 0
43 -44 -154 0
-43 -44 154 0
47 -48 155 0
-47 -48 -155 0
47 48 -155 0
-47 48 155 0
-49 -50 156 0
49 -50 -156 0
-49 50 -156 0
49 50 156 0
142 -143 157 0
-142 -143 -157 0
142 143 -157 0
-142 143 157 0
144 -145 158 0
-144 -145 -158 0
144 145 -158 0
-144 145 158 0
146 -147 159 0
-146 -147 -159 0
146 147 -159 0
-146 147 159 0
148 -149 160 0
-148 -149 -160 0
148 149 -160 0
-148 149 160 0
150 -151 161 0
-150 -151 -161 0
150 151 -161 0
-150 151 161 0
152 -153 162 0
-152 -153 -162 0
152 153 -162 0
-152 153 162 0
154 -155 163 0
-154 -155 -163 0
154 155 -163 0
-154 155 163 0
156 -157 164 0
-156 -157 -164 0
156 157 -164 0
-156 157 164 0
158 -159 165 0
-158 -159 -165 0
158 159 -165 0
-158 159 165 0
160 -161 166 0
-160 -161 -166 0
160 161 -166 0
-160 161 166 0
162 -163 167 0
-162 -163 -167 0
162 163 -167 0
-162 163 167 0
164 -165 168 0
-164 -165 -168 0
164 165 -168 0
-164 165 168 0
166 -167 169 0
-166 -167 -169 0
166 167 -169 0
-166 167 169 0
168 169 0
-168 -169 0
1 5 170 0
-1 5 -170 0
1 -5 -170 0
-1 -5 170 0
-11 -12 171 0
11 -12 -171 0
-11 12 -171 0
11 12 171 0
14 17 172 0
-14 17 -172 0
14 -17 -172 0
-14 -17 172 0
-18 -19 173 0
18 -19 -173 0
-18 19 -173 0
18 19 173 0
-25 26 174 0
25 26 -174 0
-25 -26 -174 0
25 -26 174 0
-28 30 175 0
28 30 -175 0
-28 -30 -175 0
28 -30 175 0
-32 33 176 0
32 33 -176 0
-32 -33 -176 0
32 -33 176 0
35 -36 177 0
-35 -36 -177 0
35 36 -177 0
-35 36 177 0
-37 38 178 0
37 38 -178 0
-37 -38 -178 0
37 -38 178 0
-39 -42 179 0
39 -42 -179 0
-39 42 -179 0
39 42 179 0
-45 49 180 0
45 49 -180 0
-45 -49 -180 0
45 -49 180 0
170 -171 181 0
-170 -171 -181 0
170 171 -181 0
-170 171 181 0
172 -173 182 0
-172 -173 -182 0
172 173 -182 0
-172 173 182 0
174 -175 183 0
-174 -175 -183 0
174 175 -183 0
-174 175 183 0
176 -177 184 0
-176 -177 -184 0
176 177 -184 0
-176 177 184 0
178 -179 185 0
-178 -179 -185 0
178 179 -185 0
-178 179 185 0
180 -181 186 0
-180 -181 -186 0
180 181 -186 0
-180 181 186 0
182 -183 187 0
-182 -183 -187 0
182 183 -187 0
-182 183 187 0
184 -185 188 0
-184 -185 -188 0
184 185 -188 0
-184 185 188 0
-186 -187 188 0
186 -187 -188 0
-186 187 -188 0
186 187 188 0
8 9 189 0
-8 9 -189 0
8 -9 -189 0
-8 -9 189 0
11 12 190 0
-11 12 -190 0
11 -12 -190 0
-11 -12 190 0
-13 -14 191 0
13 -14 -191 0
-13 14 -191 0
13 14 191 0
-15 -16 192 0
15 -16 -192 0
-15 16 -192 0
15 16 192 0
-20 21 193 0
20 21 -193 0
-20 -21 -193 0
20 -21 193 0
22 23 194 0
-22 23 -194 0
22 -23 -194 0
-22 -23 194 0
24 -25 195 0
-24 -25 -195 0
24 25 -195 0
-24 25 195 0
29 30 196 0
-29 30 -196 0
29 -30 -196 0
-29 -30 196 0
31 32 197 0
-31 32 -197 0
31 -32 -197 0
-31 -32 197 0
36 -37 198 0
-36 -37 -198 0
36 37 -198 0
-36 37 198 0
-39 40 199 0
39 40 -199 0
-39 -40 -199 0
39 -40 199 0
41 -42 200 0
-41 -42 -200 0
41 42 -200 0
-41 42 200 0
-45 47 201 0
45 47 -201 0
-45 -47 -201 0
45 -47 201 0
48 -49 202 0
-48 -49 -202 0
48 49 -202 0
-48 49 202 0
188 -189 203 0
-188 -189 -203 0
188 189 -203 0
-188 189 203 0
190 -191 204 0
-190 -191 -204 0
190 191 -204 0
-190 191 204 0
192 -193 205 0
-192 -193 -205 0
192 193 -205 0
-192 193 205 0
194 -195 206 0
-194 -195 -206 0
194 195 -206 0
-194 195 206 0
196 -197 207 0
-196 -197 -207 0
196 197 -207 0
-196 197 207 0
198 -199 208 0
-198 -199 -208 0
198 199 -208 0
-198 199 208 0
200 -201 209 0
-200 -201 -209 0
200 201 -209 0
-200 201 209 0
202 -203 210 0
-202 -203 -210 0
202 203 -210 0
-202 203 210 0
204 -205 211 0
-204 -205 -211 0
204 205 -211 0
-204 205 211 0
206 -207 212 0
-206 -207 -212 0
206 207 -212 0
-206 207 212 0
208 -209 213 0
-208 -209 -213 0
208 209 -213 0
-208 209 213 0
210 -211 214 0
-210 -211 -214 0
210 211 -214 0
-210 211 214 0
212 -213 215 0
-212 -213 -215 0
212 213 -215 0
-212 213 215 0
214 215 0
-214 -215 0
-2 5 216 0
2 5 -216 0
-2 -5 -216 0
2 -5 216 0
7 9 217 0
-7 9 -217 0
7 -9 -217 0
-7 -9 217 0
-11 13 218 0
11 13 -218 0
-11 -13 -218 0
11 -13 218 0
15 16 219 0
-15 16 -219 0
15 -16 -219 0
-15 -16 219 0
17 18 220 0
-17 18 -220 0
17 -18 -220 0
-17 -18 220 0
20 21 221 0
-20 21 -221 0
20 -21 -221 0
-20 -21 221 0
22 -24 222 0
-22 -24 -222 0
22 24 -222 0
-22 24 222 0
-26 27 223 0
26 27 -223 0
-26 -27 -223 0
26 -27 223 0
-30 -31 224 0
30 -31 -224 0
-30 31 -224 0
30 31 224 0
34 -35 225 0
-34 -35 -225 0
34 35 -225 0
-34 35 225 0
-38 39 226 0
38 39 -226 0
-38 -39 -226 0
38 -39 226 0
-40 41 227 0
40 41 -227 0
-40 -41 -227 0
40 -41 227 0
-42 -44 228 0
42 -44 -228 0
-42 44 -228 0
42 44 228 0
-45 46 229 0
45 46 -229 0
-45 -46 -229 0
45 -46 229 0
-49 -50 230 0
49 -50 -230 0
-49 50 -230 0
49 50 230 0
216 -217 231 0
-216 -217 -231 0
216 217 -231 0
-216 217 231 0
218 -219 232 0
-218 -219 -232 0
218 219 -232 0
-218 219 232 0
220 -221 233 0
-220 -221 -233 0
220 221 -233 0
-220 221 233 0
222 -223 234 0
-222 -223 -234 0
222 223 -234 0
-222 223 234 0
224 -225 235 0
-224 -225 -235 0
224 225 -235 0
-224 225 235 0
226 -227 236 0
-226 -227 -236 0
226 227 -236 0
-226 227 236 0
228 -229 237 0
-228 -229 -237 0
228 229 -237 0
-228 229 237 0
230 -231 238 0
-230 -231 -238 0
230 231 -238 0
-230 231 238 0
232 -233 239 0
-232 -233 -239 0
232 233 -239 0
-232 233 239 0
234 -235 240 0
-234 -235 -240 0
234 235 -240 0
-234 235 240 0
236 -237 241 0
-236 -237 -241 0
236 237 -241 0
-236 237 241 0
238 -239 242 0
-238 -239 -242 0
238 239 -242 0
-238 239 242 0
240 -241 243 0
-240 -241 -243 0
240 241 -243 0
-240 241 243 0
242 243 0
-242 -243 0
1 3 244 0
-1 3 -244 0
1 -3 -244 0
-1 -3 244 0
-6 -9 245 0
6 -9 -245 0
-6 9 -245 0
6 9 245 0
-11 -16 246 0
11 -16 -246 0
-11 16 -246 0
11 16 246 0
17 22 247 0
-17 22 -247 0
17 -22 -247 0
-17 -22 247 0
-23 28 248 0
23 28 -248 0
-23 -28 -248 0
23 -28 248 0
31 -34 249 0
-31 -34 -249 0
31 34 -249 0
-31 34 249 0
-35 36 250 0
35 36 -250 0
-35 -36 -250 0
35 -36 250 0
38 -39 251 0
-38 -39 -251 0
38 39 -251 0
-38 39 251 0
44 -45 252 0
-44 -45 -252 0
44 45 -252 0
-44 45 252 0
47 -49 253 0
-47 -49 -253 0
47 49 -253 0
-47 49 253 0
243 -244 254 0
-243 -244 -254 0
243 244 -254 0
-243 244 254 0
245 -246 255 0
-245 -246 -255 0
245 246 -255 0
-245 246 255 0
247 -248 256 0
-247 -248 -256 0
247 248 -256 0
-247 248 256 0
249 -250 257 0
-249 -250 -257 0
249 250 -257 0
-249 250 257 0
251 -252 258 0
-251 -252 -258 0
251 252 -258 0
-251 252 258 0
253 -254 259 0
-253 -254 -259 0
253 254 -259 0
-253 254 259 0
255 -256 260 0
-255 -256 -260 0
255 256 -260 0
-255 256 260 0
257 -258 261 0
-257 -258 -261 0
257 258 -261 0
-257 258 261 0
-259 -260 261 0
259 -260 -261 0
-259 260 -261 0
259 260 261 0
2 -5 262 0
-2 -5 -262 0
2 5 -262 0
-2 5 262 0
6 14 263 0
-6 14 -263 0
6 -14 -263 0
-6 -14 263 0
-15 -21 264 0
15 -21 -264 0
-15 21 -264 0
15 21 264 0
22 23 265 0
-22 23 -265 0
22 -23 -265 0
-22 -23 265 0
24 -26 266 0
-24 -26 -266 0
24 26 -266 0
-24 26 266 0
29 32 267 0
-29 32 -267 0
29 -32 -267 0
-29 -32 267 0
33 34 268 0
-33 34 -268 0
33 -34 -268 0
-33 -34 268 0
35 36 269 0
-35 36 -269 0
35 -36 -269 0
-35 -36 269 0
39 40 270 0
-39 40 -270 0
39 -40 -270 0
-39 -40 270 0
-41 -44 271 0
41 -44 -271 0
-41 44 -271 0
41 44 271 0
45 49 272 0
-45 49 -272 0
45 -49 -272 0
-45 -49 272 0
262 -263 273 0
-262 -263 -273 0
262 263 -273 0
-262 263 273 0
264 -265 274 0
-264 -265 -274 0
264 265 -274 0
-264 265 274 0
266 -267 275 0
-266 -267 -275 0
266 267 -275 0
-266 267 275 0
268 -269 276 0
-268 -269 -276 0
268 269 -276 0
-268 269 276 0
270 -271 277 0
-270 -271 -277 0
270 271 -277 0
-270 271 277 0
272 -273 278 0
-272 -273 -278 0
272 273 -278 0
-272 273 278 0
274 -275 279 0
-274 -275 -279 0
274 275 -279 0
-274 275 279 0
276 -277 280 0
-276 -277 -280 0
276 277 -280 0
-276 277 280 0
-278 -279 280 0
278 -279 -280 0
-278 279 -280 0
278 279 280 0
